(set-info :smt-lib-version 2.6)
(set-logic QF_LRA)
(set-info :source |
Specification and verification of a 8N1 decoder.
Geoffrey Brown, Indiana University <geobrown@cs.indiana.edu>
Lee Pike, Galois Connections, Inc. <leepike@galois.com> 

Translated into CVC format by Leonardo de Moura.

This benchmark was automatically translated into SMT-LIB format from
CVC format using CVC Lite



|)
(set-info :category "industrial")
(set-info :status sat)
(declare-fun x_0 () Real)
(declare-fun x_1 () Real)
(declare-fun x_2 () Real)
(declare-fun x_3 () Real)
(declare-fun x_4 () Real)
(declare-fun x_5 () Real)
(declare-fun x_6 () Real)
(declare-fun x_7 () Bool)
(declare-fun x_8 () Real)
(declare-fun x_9 () Bool)
(declare-fun x_10 () Real)
(declare-fun x_11 () Bool)
(declare-fun x_12 () Real)
(declare-fun x_13 () Bool)
(declare-fun x_14 () Real)
(declare-fun x_15 () Bool)
(declare-fun x_16 () Real)
(declare-fun x_17 () Bool)
(declare-fun x_18 () Real)
(declare-fun x_19 () Bool)
(declare-fun x_20 () Real)
(declare-fun x_21 () Bool)
(declare-fun x_22 () Real)
(declare-fun x_23 () Real)
(declare-fun x_24 () Real)
(declare-fun x_25 () Real)
(declare-fun x_26 () Real)
(declare-fun x_27 () Real)
(declare-fun x_28 () Real)
(declare-fun x_29 () Real)
(declare-fun x_30 () Real)
(declare-fun x_31 () Real)
(declare-fun x_32 () Real)
(declare-fun x_33 () Real)
(declare-fun x_34 () Real)
(declare-fun x_35 () Real)
(declare-fun x_36 () Real)
(declare-fun x_37 () Real)
(declare-fun x_38 () Real)
(declare-fun x_39 () Real)
(declare-fun x_40 () Real)
(declare-fun x_41 () Real)
(declare-fun x_42 () Real)
(declare-fun x_43 () Real)
(declare-fun x_44 () Real)
(declare-fun x_45 () Real)
(declare-fun x_46 () Real)
(declare-fun x_47 () Real)
(declare-fun x_48 () Real)
(declare-fun x_49 () Real)
(declare-fun x_50 () Real)
(declare-fun x_51 () Real)
(declare-fun x_52 () Real)
(declare-fun x_53 () Real)
(declare-fun x_54 () Real)
(declare-fun x_55 () Real)
(declare-fun x_56 () Real)
(declare-fun x_57 () Real)
(declare-fun x_58 () Real)
(declare-fun x_59 () Real)
(declare-fun x_60 () Real)
(declare-fun x_61 () Real)
(declare-fun x_62 () Real)
(declare-fun x_63 () Real)
(declare-fun x_64 () Real)
(declare-fun x_65 () Real)
(declare-fun x_66 () Real)
(declare-fun x_67 () Real)
(declare-fun x_68 () Real)
(declare-fun x_69 () Real)
(declare-fun x_70 () Real)
(declare-fun x_71 () Real)
(declare-fun x_72 () Real)
(declare-fun x_73 () Real)
(declare-fun x_74 () Real)
(declare-fun x_75 () Real)
(declare-fun x_76 () Real)
(declare-fun x_77 () Real)
(declare-fun x_78 () Real)
(declare-fun x_79 () Real)
(declare-fun x_80 () Real)
(declare-fun x_81 () Real)
(declare-fun x_82 () Real)
(declare-fun x_83 () Real)
(declare-fun x_84 () Real)
(declare-fun x_85 () Real)
(declare-fun x_86 () Real)
(declare-fun x_87 () Real)
(declare-fun x_88 () Real)
(declare-fun x_89 () Real)
(declare-fun x_90 () Real)
(declare-fun x_91 () Real)
(declare-fun x_92 () Real)
(declare-fun x_93 () Real)
(declare-fun x_94 () Real)
(declare-fun x_95 () Real)
(declare-fun x_96 () Real)
(declare-fun x_97 () Real)
(declare-fun x_98 () Real)
(declare-fun x_99 () Real)
(declare-fun x_100 () Real)
(declare-fun x_101 () Real)
(declare-fun x_102 () Real)
(declare-fun x_103 () Real)
(declare-fun x_104 () Real)
(declare-fun x_105 () Real)
(declare-fun x_106 () Real)
(declare-fun x_107 () Real)
(declare-fun x_108 () Real)
(declare-fun x_109 () Real)
(declare-fun x_110 () Real)
(declare-fun x_111 () Real)
(declare-fun x_112 () Real)
(declare-fun x_113 () Real)
(declare-fun x_114 () Real)
(declare-fun x_115 () Real)
(declare-fun x_116 () Real)
(declare-fun x_117 () Real)
(declare-fun x_118 () Real)
(declare-fun x_119 () Real)
(declare-fun x_120 () Real)
(declare-fun x_121 () Real)
(declare-fun x_122 () Real)
(declare-fun x_123 () Real)
(declare-fun x_124 () Real)
(declare-fun x_125 () Real)
(declare-fun x_126 () Real)
(declare-fun x_127 () Real)
(declare-fun x_128 () Real)
(declare-fun x_129 () Real)
(declare-fun x_130 () Real)
(declare-fun x_131 () Real)
(assert (let ((?v_14 (not x_19))) (let ((?v_16 (and ?v_14 (< x_20 8))) (?v_57 (not x_17))) (let ((?v_59 (and ?v_57 (< x_18 8))) (?v_95 (not x_15))) (let ((?v_97 (and ?v_95 (< x_16 8))) (?v_133 (not x_13))) (let ((?v_135 (and ?v_133 (< x_14 8))) (?v_171 (not x_11))) (let ((?v_173 (and ?v_171 (< x_12 8))) (?v_209 (not x_9))) (let ((?v_211 (and ?v_209 (< x_10 8))) (?v_247 (not x_7))) (let ((?v_249 (and ?v_247 (< x_8 8))) (?v_237 (= x_23 10)) (?v_239 (= x_24 1)) (?v_241 (= x_9 x_7)) (?v_242 (= x_25 x_26)) (?v_246 (= x_27 x_26)) (?v_243 (= x_28 x_29)) (?v_245 (= x_30 x_31)) (?v_250 (= x_8 9)) (?v_251 (= x_28 1)) (?v_252 (not (= x_31 1))) (?v_253 (not (= x_31 0))) (?v_254 (= x_31 3)) (?v_255 (= x_31 2)) (?v_244 (= x_10 x_8)) (?v_256 (= x_32 x_27)) (?v_235 (= x_33 x_34)) (?v_257 (= x_24 x_35)) (?v_236 (= x_36 x_23)) (?v_258 (= x_37 x_38)) (?v_259 (< x_23 9)) (?v_261 (= x_0 2)) (?v_260 (= x_27 x_38)) (?v_265 (= x_26 x_27))) (let ((?v_266 (not ?v_265)) (?v_263 (= x_8 x_23)) (?v_271 (not (= x_34 x_29))) (?v_230 (= x_1 1)) (?v_199 (= x_36 10)) (?v_201 (= x_47 1)) (?v_203 (= x_11 x_9)) (?v_204 (= x_48 x_25)) (?v_208 (= x_32 x_25)) (?v_205 (= x_49 x_28)) (?v_207 (= x_50 x_30)) (?v_212 (= x_10 9)) (?v_213 (= x_49 1)) (?v_214 (not (= x_30 1))) (?v_215 (not (= x_30 0))) (?v_216 (= x_30 3)) (?v_217 (= x_30 2)) (?v_206 (= x_12 x_10)) (?v_218 (= x_51 x_32)) (?v_197 (= x_52 x_33)) (?v_219 (= x_47 x_24)) (?v_198 (= x_53 x_36)) (?v_220 (= x_54 x_37)) (?v_221 (< x_36 9)) (?v_223 (= x_1 2)) (?v_222 (= x_32 x_37)) (?v_227 (= x_25 x_32))) (let ((?v_228 (not ?v_227)) (?v_225 (= x_10 x_36)) (?v_233 (not (= x_33 x_28))) (?v_192 (= x_2 1)) (?v_161 (= x_53 10)) (?v_163 (= x_61 1)) (?v_165 (= x_13 x_11)) (?v_166 (= x_62 x_48)) (?v_170 (= x_51 x_48)) (?v_167 (= x_63 x_49)) (?v_169 (= x_64 x_50)) (?v_174 (= x_12 9)) (?v_175 (= x_63 1)) (?v_176 (not (= x_50 1))) (?v_177 (not (= x_50 0))) (?v_178 (= x_50 3)) (?v_179 (= x_50 2)) (?v_168 (= x_14 x_12)) (?v_180 (= x_65 x_51)) (?v_159 (= x_66 x_52)) (?v_181 (= x_61 x_47)) (?v_160 (= x_67 x_53)) (?v_182 (= x_68 x_54)) (?v_183 (< x_53 9)) (?v_185 (= x_2 2)) (?v_184 (= x_51 x_54)) (?v_189 (= x_48 x_51))) (let ((?v_190 (not ?v_189)) (?v_187 (= x_12 x_53)) (?v_195 (not (= x_52 x_49))) (?v_154 (= x_3 1)) (?v_123 (= x_67 10)) (?v_125 (= x_75 1)) (?v_127 (= x_15 x_13)) (?v_128 (= x_76 x_62)) (?v_132 (= x_65 x_62)) (?v_129 (= x_77 x_63)) (?v_131 (= x_78 x_64)) (?v_136 (= x_14 9)) (?v_137 (= x_77 1)) (?v_138 (not (= x_64 1))) (?v_139 (not (= x_64 0))) (?v_140 (= x_64 3)) (?v_141 (= x_64 2)) (?v_130 (= x_16 x_14)) (?v_142 (= x_79 x_65)) (?v_121 (= x_80 x_66)) (?v_143 (= x_75 x_61)) (?v_122 (= x_81 x_67)) (?v_144 (= x_82 x_68)) (?v_145 (< x_67 9)) (?v_147 (= x_3 2)) (?v_146 (= x_65 x_68)) (?v_151 (= x_62 x_65))) (let ((?v_152 (not ?v_151)) (?v_149 (= x_14 x_67)) (?v_157 (not (= x_66 x_63))) (?v_116 (= x_4 1)) (?v_85 (= x_81 10)) (?v_87 (= x_89 1)) (?v_89 (= x_17 x_15)) (?v_90 (= x_90 x_76)) (?v_94 (= x_79 x_76)) (?v_91 (= x_91 x_77)) (?v_93 (= x_92 x_78)) (?v_98 (= x_16 9)) (?v_99 (= x_91 1)) (?v_100 (not (= x_78 1))) (?v_101 (not (= x_78 0))) (?v_102 (= x_78 3)) (?v_103 (= x_78 2)) (?v_92 (= x_18 x_16)) (?v_104 (= x_93 x_79)) (?v_83 (= x_94 x_80)) (?v_105 (= x_89 x_75)) (?v_84 (= x_95 x_81)) (?v_106 (= x_96 x_82)) (?v_107 (< x_81 9)) (?v_109 (= x_4 2)) (?v_108 (= x_79 x_82)) (?v_113 (= x_76 x_79))) (let ((?v_114 (not ?v_113)) (?v_111 (= x_16 x_81)) (?v_119 (not (= x_80 x_77))) (?v_78 (= x_5 1)) (?v_42 (= x_95 10)) (?v_44 (= x_103 1)) (?v_50 (= x_19 x_17)) (?v_51 (= x_104 x_90)) (?v_55 (= x_93 x_90)) (?v_52 (= x_105 x_91)) (?v_54 (= x_106 x_92)) (?v_60 (= x_18 9)) (?v_61 (= x_105 1)) (?v_62 (not (= x_92 1))) (?v_63 (not (= x_92 0))) (?v_64 (= x_92 3)) (?v_65 (= x_92 2)) (?v_53 (= x_20 x_18)) (?v_66 (= x_107 x_93)) (?v_40 (= x_108 x_94)) (?v_67 (= x_103 x_89)) (?v_41 (= x_109 x_95)) (?v_68 (= x_110 x_96)) (?v_69 (< x_95 9)) (?v_71 (= x_5 2)) (?v_70 (= x_93 x_96)) (?v_75 (= x_90 x_93))) (let ((?v_76 (not ?v_75)) (?v_73 (= x_18 x_95)) (?v_81 (not (= x_94 x_91))) (?v_34 (= x_6 1)) (?v_2 (= x_109 10)) (?v_4 (= x_117 1)) (?v_8 (= x_21 x_19)) (?v_9 (= x_118 x_104)) (?v_13 (= x_107 x_104)) (?v_10 (= x_119 x_105)) (?v_12 (= x_120 x_106)) (?v_17 (= x_20 9)) (?v_18 (= x_119 1)) (?v_19 (not (= x_106 1))) (?v_20 (not (= x_106 0))) (?v_21 (= x_106 3)) (?v_22 (= x_106 2)) (?v_11 (= x_22 x_20)) (?v_23 (= x_121 x_107)) (?v_0 (= x_122 x_108)) (?v_24 (= x_117 x_103)) (?v_1 (= x_123 x_109)) (?v_25 (= x_124 x_110)) (?v_26 (< x_109 9)) (?v_28 (= x_6 2)) (?v_27 (= x_107 x_110)) (?v_32 (= x_104 x_107))) (let ((?v_33 (not ?v_32)) (?v_30 (= x_20 x_109)) (?v_38 (not (= x_108 x_105))) (?v_35 (= x_125 1)) (?v_248 (not (< x_28 0))) (?v_210 (not (< x_49 0))) (?v_172 (not (< x_63 0))) (?v_134 (not (< x_77 0))) (?v_96 (not (< x_91 0))) (?v_58 (not (< x_105 0))) (?v_15 (not (< x_119 0))) (?v_268 (= x_0 1)) (?v_3 (= x_117 0)) (?v_5 (= x_123 1)) (?v_77 (= x_6 0)) (?v_43 (= x_103 0)) (?v_45 (= x_109 1)) (?v_115 (= x_5 0)) (?v_86 (= x_89 0)) (?v_88 (= x_95 1)) (?v_153 (= x_4 0)) (?v_124 (= x_75 0)) (?v_126 (= x_81 1)) (?v_191 (= x_3 0)) (?v_162 (= x_61 0)) (?v_164 (= x_67 1)) (?v_229 (= x_2 0)) (?v_200 (= x_47 0)) (?v_202 (= x_53 1)) (?v_267 (= x_1 0)) (?v_238 (= x_24 0)) (?v_240 (= x_36 1)) (?v_36 (not ?v_26)) (?v_37 (and ?v_26 (not ?v_27))) (?v_31 (and ?v_26 ?v_27))) (let ((?v_29 (and ?v_31 ?v_33))) (let ((?v_39 (and ?v_29 ?v_30)) (?v_79 (not ?v_69)) (?v_80 (and ?v_69 (not ?v_70))) (?v_74 (and ?v_69 ?v_70))) (let ((?v_72 (and ?v_74 ?v_76))) (let ((?v_82 (and ?v_72 ?v_73)) (?v_117 (not ?v_107)) (?v_118 (and ?v_107 (not ?v_108))) (?v_112 (and ?v_107 ?v_108))) (let ((?v_110 (and ?v_112 ?v_114))) (let ((?v_120 (and ?v_110 ?v_111)) (?v_155 (not ?v_145)) (?v_156 (and ?v_145 (not ?v_146))) (?v_150 (and ?v_145 ?v_146))) (let ((?v_148 (and ?v_150 ?v_152))) (let ((?v_158 (and ?v_148 ?v_149)) (?v_193 (not ?v_183)) (?v_194 (and ?v_183 (not ?v_184))) (?v_188 (and ?v_183 ?v_184))) (let ((?v_186 (and ?v_188 ?v_190))) (let ((?v_196 (and ?v_186 ?v_187)) (?v_231 (not ?v_221)) (?v_232 (and ?v_221 (not ?v_222))) (?v_226 (and ?v_221 ?v_222))) (let ((?v_224 (and ?v_226 ?v_228))) (let ((?v_234 (and ?v_224 ?v_225)) (?v_269 (not ?v_259)) (?v_270 (and ?v_259 (not ?v_260))) (?v_264 (and ?v_259 ?v_260))) (let ((?v_262 (and ?v_264 ?v_266))) (let ((?v_272 (and ?v_262 ?v_263)) (?v_6 (- 1 x_42))) (let ((?v_46 (* ?v_6 23)) (?v_7 (+ x_42 1))) (let ((?v_47 (* ?v_7 23)) (?v_48 (* ?v_6 16)) (?v_49 (* ?v_7 16)) (?v_56 (- 16 x_44))) (and (and (and (and (and (and (and (and (and (and (and (and (and (and (and (and (and (and (and (and (and (and (and (and (and (and (and (and (and (and (and (and (and (and (and (and (and (and (and (and (and (and (and (and (and (and (and (and (and (and (and (and (and (and (and (and (and (and (and (and (and (and (and (and (and (and (and (and (and (and (and (and (and (and (and (and (and (and (and (and (and (and (and (and (and (and (and (and (and (and (and (and (and (and (and (and (and (and (and (and (and (and (and (and (and (and (and (and (and (and (and (and (and (and (and (and (and (and (and (and (and (and (and (and (and (and (and (and (and (and (and (and (and (and (and (and (and (<= x_120 3) (>= x_120 0)) (<= x_117 3)) (>= x_117 0)) (<= x_106 3)) (>= x_106 0)) (<= x_103 3)) (>= x_103 0)) (<= x_92 3)) (>= x_92 0)) (<= x_89 3)) (>= x_89 0)) (<= x_78 3)) (>= x_78 0)) (<= x_75 3)) (>= x_75 0)) (<= x_64 3)) (>= x_64 0)) (<= x_61 3)) (>= x_61 0)) (<= x_50 3)) (>= x_50 0)) (<= x_47 3)) (>= x_47 0)) (<= x_35 3)) (>= x_35 0)) (<= x_31 3)) (>= x_31 0)) (<= x_30 3)) (>= x_30 0)) (<= x_24 3)) (>= x_24 0)) (not (< x_0 0))) (<= x_0 2)) (not (< x_1 0))) (<= x_1 2)) (not (< x_2 0))) (<= x_2 2)) (not (< x_3 0))) (<= x_3 2)) (not (< x_4 0))) (<= x_4 2)) (not (< x_5 0))) (<= x_5 2)) (not (< x_6 0))) (<= x_6 2)) (not (< x_8 0))) (<= x_8 9)) (not (< x_10 0))) (<= x_10 9)) (not (< x_12 0))) (<= x_12 9)) (not (< x_14 0))) (<= x_14 9)) (not (< x_16 0))) (<= x_16 9)) (not (< x_18 0))) (<= x_18 9)) (not (< x_20 0))) (<= x_20 9)) (not (< x_22 0))) (<= x_22 9)) (not (< x_23 1))) (<= x_23 10)) ?v_248) (<= x_28 1)) (not (< x_29 0))) (<= x_29 1)) (not (< x_33 0))) (<= x_33 1)) (not (< x_34 0))) (<= x_34 1)) (not (< x_36 1))) (<= x_36 10)) (>= x_42 0)) (< x_42 (/ 3 151))) (>= x_44 0)) (< x_44 4)) ?v_210) (<= x_49 1)) (not (< x_52 0))) (<= x_52 1)) (not (< x_53 1))) (<= x_53 10)) ?v_172) (<= x_63 1)) (not (< x_66 0))) (<= x_66 1)) (not (< x_67 1))) (<= x_67 10)) ?v_134) (<= x_77 1)) (not (< x_80 0))) (<= x_80 1)) (not (< x_81 1))) (<= x_81 10)) ?v_96) (<= x_91 1)) (not (< x_94 0))) (<= x_94 1)) (not (< x_95 1))) (<= x_95 10)) ?v_58) (<= x_105 1)) (not (< x_108 0))) (<= x_108 1)) (not (< x_109 1))) (<= x_109 10)) ?v_15) (<= x_119 1)) (not (< x_122 0))) (<= x_122 1)) (not (< x_123 1))) (<= x_123 10)) (not (< x_125 0))) (<= x_125 2)) (not ?v_34)) (not ?v_78)) (not ?v_116)) (not ?v_154)) (not ?v_192)) (not ?v_230)) (not ?v_268)) (or (or (and (and (and (and (and (and (and (and (and (and (= x_126 0) (or (and (and (and (= x_127 0) (< x_107 x_110)) (<= x_110 x_104)) (= x_121 x_110)) (and (and (and (= x_127 1) (< x_107 x_104)) (<= x_104 x_110)) (= x_121 x_104)))) ?v_0) ?v_24) ?v_1) ?v_25) ?v_8) ?v_9) ?v_10) ?v_11) ?v_12) (and (and (and (and (and (and (and (and (and (= x_126 1) (or (or (and (and (and (and (and (= x_128 0) ?v_2) ?v_20) ?v_4) ?v_0) ?v_1) (and (and (and (and (and (= x_128 1) ?v_2) ?v_19) ?v_3) ?v_5) ?v_0)) (and (and (and (and (= x_128 2) (not ?v_2)) (ite (or ?v_22 ?v_21) (or ?v_3 ?v_4) (= x_117 x_106))) (= x_123 (+ x_109 1))) (= x_122 (ite ?v_4 1 0))))) ?v_27) (ite (= x_123 10) (and (<= (+ x_107 ?v_6) x_124) (<= x_124 (+ (+ x_107 x_42) 1))) (ite ?v_5 (and (<= (+ x_107 ?v_46) x_124) (<= x_124 (+ x_107 ?v_47))) (and (<= (+ x_107 ?v_48) x_124) (<= x_124 (+ x_107 ?v_49)))))) ?v_23) ?v_8) ?v_9) ?v_10) ?v_11) ?v_12)) (and (and (and (and (and (and (and (and (= x_126 2) (or (and (and (and (and (= x_129 0) ?v_13) ?v_14) (= x_118 (+ x_107 x_44))) x_21) (and (and (and (and (= x_129 1) ?v_13) x_19) (= x_118 (+ x_107 ?v_56))) (not x_21)))) (or (and (and (and (= x_130 0) ?v_16) (or (= x_119 0) ?v_18)) ?v_15) (and (and (= x_130 1) (not ?v_16)) ?v_10))) (or (or (or (and (and (and (and (= x_131 0) ?v_14) ?v_17) (= x_22 9)) ?v_12) (and (and (and (and (= x_131 1) ?v_14) ?v_17) (= x_120 2)) (= x_22 0))) (and (and (and (and (= x_131 2) ?v_14) (< x_20 9)) (= x_120 (ite (or ?v_18 (= x_20 8)) (ite ?v_19 3 x_106) (ite ?v_20 2 x_106)))) (= x_22 (+ x_20 1)))) (and (and (and (= x_131 3) x_19) (= x_120 (ite ?v_21 1 (ite ?v_22 0 x_106)))) ?v_11))) ?v_23) ?v_0) ?v_24) ?v_1) ?v_25))) (or (or (or (or (and (and ?v_28 (or (or ?v_36 ?v_37) ?v_39)) (= x_125 2)) (and (and ?v_28 (or (and ?v_29 (not ?v_30)) (and ?v_31 ?v_32))) ?v_35)) (and (and (and (and (and ?v_28 ?v_26) ?v_27) ?v_33) ?v_30) (= x_125 0))) (and ?v_34 ?v_35)) (and (and ?v_77 (or (or (and ?v_36 ?v_38) (and ?v_37 ?v_38)) (and ?v_39 ?v_38))) ?v_35))) (or (or (and (and (and (and (and (and (and (and (and (and (= x_111 0) (or (and (and (and (= x_112 0) (< x_93 x_96)) (<= x_96 x_90)) (= x_107 x_96)) (and (and (and (= x_112 1) (< x_93 x_90)) (<= x_90 x_96)) (= x_107 x_90)))) ?v_40) ?v_67) ?v_41) ?v_68) ?v_50) ?v_51) ?v_52) ?v_53) ?v_54) (and (and (and (and (and (and (and (and (and (= x_111 1) (or (or (and (and (and (and (and (= x_113 0) ?v_42) ?v_63) ?v_44) ?v_40) ?v_41) (and (and (and (and (and (= x_113 1) ?v_42) ?v_62) ?v_43) ?v_45) ?v_40)) (and (and (and (and (= x_113 2) (not ?v_42)) (ite (or ?v_65 ?v_64) (or ?v_43 ?v_44) (= x_103 x_92))) (= x_109 (+ x_95 1))) (= x_108 (ite ?v_44 1 0))))) ?v_70) (ite ?v_2 (and (<= (+ x_93 ?v_6) x_110) (<= x_110 (+ (+ x_93 x_42) 1))) (ite ?v_45 (and (<= (+ x_93 ?v_46) x_110) (<= x_110 (+ x_93 ?v_47))) (and (<= (+ x_93 ?v_48) x_110) (<= x_110 (+ x_93 ?v_49)))))) ?v_66) ?v_50) ?v_51) ?v_52) ?v_53) ?v_54)) (and (and (and (and (and (and (and (and (= x_111 2) (or (and (and (and (and (= x_114 0) ?v_55) ?v_57) (= x_104 (+ x_93 x_44))) x_19) (and (and (and (and (= x_114 1) ?v_55) x_17) (= x_104 (+ x_93 ?v_56))) ?v_14))) (or (and (and (and (= x_115 0) ?v_59) (or (= x_105 0) ?v_61)) ?v_58) (and (and (= x_115 1) (not ?v_59)) ?v_52))) (or (or (or (and (and (and (and (= x_116 0) ?v_57) ?v_60) ?v_17) ?v_54) (and (and (and (and (= x_116 1) ?v_57) ?v_60) ?v_22) (= x_20 0))) (and (and (and (and (= x_116 2) ?v_57) (< x_18 9)) (= x_106 (ite (or ?v_61 (= x_18 8)) (ite ?v_62 3 x_92) (ite ?v_63 2 x_92)))) (= x_20 (+ x_18 1)))) (and (and (and (= x_116 3) x_17) (= x_106 (ite ?v_64 1 (ite ?v_65 0 x_92)))) ?v_53))) ?v_66) ?v_40) ?v_67) ?v_41) ?v_68))) (or (or (or (or (and (and ?v_71 (or (or ?v_79 ?v_80) ?v_82)) ?v_28) (and (and ?v_71 (or (and ?v_72 (not ?v_73)) (and ?v_74 ?v_75))) ?v_34)) (and (and (and (and (and ?v_71 ?v_69) ?v_70) ?v_76) ?v_73) ?v_77)) (and ?v_78 ?v_34)) (and (and ?v_115 (or (or (and ?v_79 ?v_81) (and ?v_80 ?v_81)) (and ?v_82 ?v_81))) ?v_34))) (or (or (and (and (and (and (and (and (and (and (and (and (= x_97 0) (or (and (and (and (= x_98 0) (< x_79 x_82)) (<= x_82 x_76)) (= x_93 x_82)) (and (and (and (= x_98 1) (< x_79 x_76)) (<= x_76 x_82)) (= x_93 x_76)))) ?v_83) ?v_105) ?v_84) ?v_106) ?v_89) ?v_90) ?v_91) ?v_92) ?v_93) (and (and (and (and (and (and (and (and (and (= x_97 1) (or (or (and (and (and (and (and (= x_99 0) ?v_85) ?v_101) ?v_87) ?v_83) ?v_84) (and (and (and (and (and (= x_99 1) ?v_85) ?v_100) ?v_86) ?v_88) ?v_83)) (and (and (and (and (= x_99 2) (not ?v_85)) (ite (or ?v_103 ?v_102) (or ?v_86 ?v_87) (= x_89 x_78))) (= x_95 (+ x_81 1))) (= x_94 (ite ?v_87 1 0))))) ?v_108) (ite ?v_42 (and (<= (+ x_79 ?v_6) x_96) (<= x_96 (+ (+ x_79 x_42) 1))) (ite ?v_88 (and (<= (+ x_79 ?v_46) x_96) (<= x_96 (+ x_79 ?v_47))) (and (<= (+ x_79 ?v_48) x_96) (<= x_96 (+ x_79 ?v_49)))))) ?v_104) ?v_89) ?v_90) ?v_91) ?v_92) ?v_93)) (and (and (and (and (and (and (and (and (= x_97 2) (or (and (and (and (and (= x_100 0) ?v_94) ?v_95) (= x_90 (+ x_79 x_44))) x_17) (and (and (and (and (= x_100 1) ?v_94) x_15) (= x_90 (+ x_79 ?v_56))) ?v_57))) (or (and (and (and (= x_101 0) ?v_97) (or (= x_91 0) ?v_99)) ?v_96) (and (and (= x_101 1) (not ?v_97)) ?v_91))) (or (or (or (and (and (and (and (= x_102 0) ?v_95) ?v_98) ?v_60) ?v_93) (and (and (and (and (= x_102 1) ?v_95) ?v_98) ?v_65) (= x_18 0))) (and (and (and (and (= x_102 2) ?v_95) (< x_16 9)) (= x_92 (ite (or ?v_99 (= x_16 8)) (ite ?v_100 3 x_78) (ite ?v_101 2 x_78)))) (= x_18 (+ x_16 1)))) (and (and (and (= x_102 3) x_15) (= x_92 (ite ?v_102 1 (ite ?v_103 0 x_78)))) ?v_92))) ?v_104) ?v_83) ?v_105) ?v_84) ?v_106))) (or (or (or (or (and (and ?v_109 (or (or ?v_117 ?v_118) ?v_120)) ?v_71) (and (and ?v_109 (or (and ?v_110 (not ?v_111)) (and ?v_112 ?v_113))) ?v_78)) (and (and (and (and (and ?v_109 ?v_107) ?v_108) ?v_114) ?v_111) ?v_115)) (and ?v_116 ?v_78)) (and (and ?v_153 (or (or (and ?v_117 ?v_119) (and ?v_118 ?v_119)) (and ?v_120 ?v_119))) ?v_78))) (or (or (and (and (and (and (and (and (and (and (and (and (= x_83 0) (or (and (and (and (= x_84 0) (< x_65 x_68)) (<= x_68 x_62)) (= x_79 x_68)) (and (and (and (= x_84 1) (< x_65 x_62)) (<= x_62 x_68)) (= x_79 x_62)))) ?v_121) ?v_143) ?v_122) ?v_144) ?v_127) ?v_128) ?v_129) ?v_130) ?v_131) (and (and (and (and (and (and (and (and (and (= x_83 1) (or (or (and (and (and (and (and (= x_85 0) ?v_123) ?v_139) ?v_125) ?v_121) ?v_122) (and (and (and (and (and (= x_85 1) ?v_123) ?v_138) ?v_124) ?v_126) ?v_121)) (and (and (and (and (= x_85 2) (not ?v_123)) (ite (or ?v_141 ?v_140) (or ?v_124 ?v_125) (= x_75 x_64))) (= x_81 (+ x_67 1))) (= x_80 (ite ?v_125 1 0))))) ?v_146) (ite ?v_85 (and (<= (+ x_65 ?v_6) x_82) (<= x_82 (+ (+ x_65 x_42) 1))) (ite ?v_126 (and (<= (+ x_65 ?v_46) x_82) (<= x_82 (+ x_65 ?v_47))) (and (<= (+ x_65 ?v_48) x_82) (<= x_82 (+ x_65 ?v_49)))))) ?v_142) ?v_127) ?v_128) ?v_129) ?v_130) ?v_131)) (and (and (and (and (and (and (and (and (= x_83 2) (or (and (and (and (and (= x_86 0) ?v_132) ?v_133) (= x_76 (+ x_65 x_44))) x_15) (and (and (and (and (= x_86 1) ?v_132) x_13) (= x_76 (+ x_65 ?v_56))) ?v_95))) (or (and (and (and (= x_87 0) ?v_135) (or (= x_77 0) ?v_137)) ?v_134) (and (and (= x_87 1) (not ?v_135)) ?v_129))) (or (or (or (and (and (and (and (= x_88 0) ?v_133) ?v_136) ?v_98) ?v_131) (and (and (and (and (= x_88 1) ?v_133) ?v_136) ?v_103) (= x_16 0))) (and (and (and (and (= x_88 2) ?v_133) (< x_14 9)) (= x_78 (ite (or ?v_137 (= x_14 8)) (ite ?v_138 3 x_64) (ite ?v_139 2 x_64)))) (= x_16 (+ x_14 1)))) (and (and (and (= x_88 3) x_13) (= x_78 (ite ?v_140 1 (ite ?v_141 0 x_64)))) ?v_130))) ?v_142) ?v_121) ?v_143) ?v_122) ?v_144))) (or (or (or (or (and (and ?v_147 (or (or ?v_155 ?v_156) ?v_158)) ?v_109) (and (and ?v_147 (or (and ?v_148 (not ?v_149)) (and ?v_150 ?v_151))) ?v_116)) (and (and (and (and (and ?v_147 ?v_145) ?v_146) ?v_152) ?v_149) ?v_153)) (and ?v_154 ?v_116)) (and (and ?v_191 (or (or (and ?v_155 ?v_157) (and ?v_156 ?v_157)) (and ?v_158 ?v_157))) ?v_116))) (or (or (and (and (and (and (and (and (and (and (and (and (= x_69 0) (or (and (and (and (= x_70 0) (< x_51 x_54)) (<= x_54 x_48)) (= x_65 x_54)) (and (and (and (= x_70 1) (< x_51 x_48)) (<= x_48 x_54)) (= x_65 x_48)))) ?v_159) ?v_181) ?v_160) ?v_182) ?v_165) ?v_166) ?v_167) ?v_168) ?v_169) (and (and (and (and (and (and (and (and (and (= x_69 1) (or (or (and (and (and (and (and (= x_71 0) ?v_161) ?v_177) ?v_163) ?v_159) ?v_160) (and (and (and (and (and (= x_71 1) ?v_161) ?v_176) ?v_162) ?v_164) ?v_159)) (and (and (and (and (= x_71 2) (not ?v_161)) (ite (or ?v_179 ?v_178) (or ?v_162 ?v_163) (= x_61 x_50))) (= x_67 (+ x_53 1))) (= x_66 (ite ?v_163 1 0))))) ?v_184) (ite ?v_123 (and (<= (+ x_51 ?v_6) x_68) (<= x_68 (+ (+ x_51 x_42) 1))) (ite ?v_164 (and (<= (+ x_51 ?v_46) x_68) (<= x_68 (+ x_51 ?v_47))) (and (<= (+ x_51 ?v_48) x_68) (<= x_68 (+ x_51 ?v_49)))))) ?v_180) ?v_165) ?v_166) ?v_167) ?v_168) ?v_169)) (and (and (and (and (and (and (and (and (= x_69 2) (or (and (and (and (and (= x_72 0) ?v_170) ?v_171) (= x_62 (+ x_51 x_44))) x_13) (and (and (and (and (= x_72 1) ?v_170) x_11) (= x_62 (+ x_51 ?v_56))) ?v_133))) (or (and (and (and (= x_73 0) ?v_173) (or (= x_63 0) ?v_175)) ?v_172) (and (and (= x_73 1) (not ?v_173)) ?v_167))) (or (or (or (and (and (and (and (= x_74 0) ?v_171) ?v_174) ?v_136) ?v_169) (and (and (and (and (= x_74 1) ?v_171) ?v_174) ?v_141) (= x_14 0))) (and (and (and (and (= x_74 2) ?v_171) (< x_12 9)) (= x_64 (ite (or ?v_175 (= x_12 8)) (ite ?v_176 3 x_50) (ite ?v_177 2 x_50)))) (= x_14 (+ x_12 1)))) (and (and (and (= x_74 3) x_11) (= x_64 (ite ?v_178 1 (ite ?v_179 0 x_50)))) ?v_168))) ?v_180) ?v_159) ?v_181) ?v_160) ?v_182))) (or (or (or (or (and (and ?v_185 (or (or ?v_193 ?v_194) ?v_196)) ?v_147) (and (and ?v_185 (or (and ?v_186 (not ?v_187)) (and ?v_188 ?v_189))) ?v_154)) (and (and (and (and (and ?v_185 ?v_183) ?v_184) ?v_190) ?v_187) ?v_191)) (and ?v_192 ?v_154)) (and (and ?v_229 (or (or (and ?v_193 ?v_195) (and ?v_194 ?v_195)) (and ?v_196 ?v_195))) ?v_154))) (or (or (and (and (and (and (and (and (and (and (and (and (= x_55 0) (or (and (and (and (= x_56 0) (< x_32 x_37)) (<= x_37 x_25)) (= x_51 x_37)) (and (and (and (= x_56 1) (< x_32 x_25)) (<= x_25 x_37)) (= x_51 x_25)))) ?v_197) ?v_219) ?v_198) ?v_220) ?v_203) ?v_204) ?v_205) ?v_206) ?v_207) (and (and (and (and (and (and (and (and (and (= x_55 1) (or (or (and (and (and (and (and (= x_57 0) ?v_199) ?v_215) ?v_201) ?v_197) ?v_198) (and (and (and (and (and (= x_57 1) ?v_199) ?v_214) ?v_200) ?v_202) ?v_197)) (and (and (and (and (= x_57 2) (not ?v_199)) (ite (or ?v_217 ?v_216) (or ?v_200 ?v_201) (= x_47 x_30))) (= x_53 (+ x_36 1))) (= x_52 (ite ?v_201 1 0))))) ?v_222) (ite ?v_161 (and (<= (+ x_32 ?v_6) x_54) (<= x_54 (+ (+ x_32 x_42) 1))) (ite ?v_202 (and (<= (+ x_32 ?v_46) x_54) (<= x_54 (+ x_32 ?v_47))) (and (<= (+ x_32 ?v_48) x_54) (<= x_54 (+ x_32 ?v_49)))))) ?v_218) ?v_203) ?v_204) ?v_205) ?v_206) ?v_207)) (and (and (and (and (and (and (and (and (= x_55 2) (or (and (and (and (and (= x_58 0) ?v_208) ?v_209) (= x_48 (+ x_32 x_44))) x_11) (and (and (and (and (= x_58 1) ?v_208) x_9) (= x_48 (+ x_32 ?v_56))) ?v_171))) (or (and (and (and (= x_59 0) ?v_211) (or (= x_49 0) ?v_213)) ?v_210) (and (and (= x_59 1) (not ?v_211)) ?v_205))) (or (or (or (and (and (and (and (= x_60 0) ?v_209) ?v_212) ?v_174) ?v_207) (and (and (and (and (= x_60 1) ?v_209) ?v_212) ?v_179) (= x_12 0))) (and (and (and (and (= x_60 2) ?v_209) (< x_10 9)) (= x_50 (ite (or ?v_213 (= x_10 8)) (ite ?v_214 3 x_30) (ite ?v_215 2 x_30)))) (= x_12 (+ x_10 1)))) (and (and (and (= x_60 3) x_9) (= x_50 (ite ?v_216 1 (ite ?v_217 0 x_30)))) ?v_206))) ?v_218) ?v_197) ?v_219) ?v_198) ?v_220))) (or (or (or (or (and (and ?v_223 (or (or ?v_231 ?v_232) ?v_234)) ?v_185) (and (and ?v_223 (or (and ?v_224 (not ?v_225)) (and ?v_226 ?v_227))) ?v_192)) (and (and (and (and (and ?v_223 ?v_221) ?v_222) ?v_228) ?v_225) ?v_229)) (and ?v_230 ?v_192)) (and (and ?v_267 (or (or (and ?v_231 ?v_233) (and ?v_232 ?v_233)) (and ?v_234 ?v_233))) ?v_192))) (or (or (and (and (and (and (and (and (and (and (and (and (= x_39 0) (or (and (and (and (= x_40 0) (< x_27 x_38)) (<= x_38 x_26)) (= x_32 x_38)) (and (and (and (= x_40 1) (< x_27 x_26)) (<= x_26 x_38)) (= x_32 x_26)))) ?v_235) ?v_257) ?v_236) ?v_258) ?v_241) ?v_242) ?v_243) ?v_244) ?v_245) (and (and (and (and (and (and (and (and (and (= x_39 1) (or (or (and (and (and (and (and (= x_41 0) ?v_237) ?v_253) ?v_239) ?v_235) ?v_236) (and (and (and (and (and (= x_41 1) ?v_237) ?v_252) ?v_238) ?v_240) ?v_235)) (and (and (and (and (= x_41 2) (not ?v_237)) (ite (or ?v_255 ?v_254) (or ?v_238 ?v_239) (= x_24 x_31))) (= x_36 (+ x_23 1))) (= x_33 (ite ?v_239 1 0))))) ?v_260) (ite ?v_199 (and (<= (+ x_27 ?v_6) x_37) (<= x_37 (+ (+ x_27 x_42) 1))) (ite ?v_240 (and (<= (+ x_27 ?v_46) x_37) (<= x_37 (+ x_27 ?v_47))) (and (<= (+ x_27 ?v_48) x_37) (<= x_37 (+ x_27 ?v_49)))))) ?v_256) ?v_241) ?v_242) ?v_243) ?v_244) ?v_245)) (and (and (and (and (and (and (and (and (= x_39 2) (or (and (and (and (and (= x_43 0) ?v_246) ?v_247) (= x_25 (+ x_27 x_44))) x_9) (and (and (and (and (= x_43 1) ?v_246) x_7) (= x_25 (+ x_27 ?v_56))) ?v_209))) (or (and (and (and (= x_45 0) ?v_249) (or (= x_28 0) ?v_251)) ?v_248) (and (and (= x_45 1) (not ?v_249)) ?v_243))) (or (or (or (and (and (and (and (= x_46 0) ?v_247) ?v_250) ?v_212) ?v_245) (and (and (and (and (= x_46 1) ?v_247) ?v_250) ?v_217) (= x_10 0))) (and (and (and (and (= x_46 2) ?v_247) (< x_8 9)) (= x_30 (ite (or ?v_251 (= x_8 8)) (ite ?v_252 3 x_31) (ite ?v_253 2 x_31)))) (= x_10 (+ x_8 1)))) (and (and (and (= x_46 3) x_7) (= x_30 (ite ?v_254 1 (ite ?v_255 0 x_31)))) ?v_244))) ?v_256) ?v_235) ?v_257) ?v_236) ?v_258))) (or (or (or (or (and (and ?v_261 (or (or ?v_269 ?v_270) ?v_272)) ?v_223) (and (and ?v_261 (or (and ?v_262 (not ?v_263)) (and ?v_264 ?v_265))) ?v_230)) (and (and (and (and (and ?v_261 ?v_259) ?v_260) ?v_266) ?v_263) ?v_267)) (and ?v_268 ?v_230)) (and (and (= x_0 0) (or (or (and ?v_269 ?v_271) (and ?v_270 ?v_271)) (and ?v_272 ?v_271))) ?v_230))) ?v_35)))))))))))))))))))))))))))))))))
(check-sat)
(exit)
